
<<< setup

Version identifier: 22.1.1.0 | 2022-11-27 | 9160aff4d
Tried aggregator 1 time.
LP Presolve eliminated 107 rows and 56 columns.
Reduced LP has 5 rows, 40 columns, and 40 nonzeros.
Presolve time = 0.00 sec. (0.05 ticks)

Iteration log . . .
Iteration:     1   Dual objective     =          1665.756823
main returns 0

<<< main


<<< done

